\ENCODING=ISO-8859-1
\Problem name: IloCplex

Minimize
 obj: x_0_1 + 2.2360680103302 x_0_2 + 2.2360680103302 x_0_3 + 2 x_0_4 + x_1_0
      + 2.2360680103302 x_2_0 + 2.2360680103302 x_3_0 + 2 x_4_0
      + 1.41421353816986 x_1_2 + 2 x_1_3 + 2.2360680103302 x_1_4
      + 1.41421353816986 x_2_1 + 1.41421353816986 x_2_3 + 2.2360680103302 x_2_4
      + 2 x_3_1 + 1.41421353816986 x_3_2 + x_3_4 + 2.2360680103302 x_4_1
      + 2.2360680103302 x_4_2 + x_4_3
Subject To
 (1):     x_0_1 + x_0_2 + x_0_3 + x_0_4 <= 1
 (2):     x_1_0 + x_2_0 + x_3_0 + x_4_0 <= 1
 (3_1):   x_1_0 + x_1_2 + x_1_3 + x_1_4  = 1
 (3_2):   x_2_0 + x_2_1 + x_2_3 + x_2_4  = 1
 (3_3):   x_3_0 + x_3_1 + x_3_2 + x_3_4  = 1
 (3_4):   x_4_0 + x_4_1 + x_4_2 + x_4_3  = 1
 (4_1):   x_0_1 + x_2_1 + x_3_1 + x_4_1  = 1
 (4_2):   x_0_2 + x_1_2 + x_3_2 + x_4_2  = 1
 (4_3):   x_0_3 + x_1_3 + x_2_3 + x_4_3  = 1
 (4_4):   x_0_4 + x_1_4 + x_2_4 + x_3_4  = 1
 (5_0_1): - 10 x_0_1 + w_0 - w_1 >= -10
 (5_0_2): - 10 x_0_2 + w_0 - w_2 >= -10
 (5_0_3): - 10 x_0_3 + w_0 - w_3 >= -10
 (5_0_4): - 10 x_0_4 + w_0 - w_4 >= -10
 (5_1_2): - 19 x_1_2 + w_1 - w_2 >= -10
 (5_1_3): - 19 x_1_3 + w_1 - w_3 >= -10
 (5_1_4): - 19 x_1_4 + w_1 - w_4 >= -10
 (5_2_1): - 19 x_2_1 - w_1 + w_2 >= -10
 (5_2_3): - 19 x_2_3 + w_2 - w_3 >= -10
 (5_2_4): - 19 x_2_4 + w_2 - w_4 >= -10
 (5_3_1): - 19 x_3_1 - w_1 + w_3 >= -10
 (5_3_2): - 19 x_3_2 - w_2 + w_3 >= -10
 (5_3_4): - 19 x_3_4 + w_3 - w_4 >= -10
 (5_4_1): - 19 x_4_1 - w_1 + w_4 >= -10
 (5_4_2): - 19 x_4_2 - w_2 + w_4 >= -10
 (5_4_3): - 19 x_4_3 - w_3 + w_4 >= -10
Bounds
 0 <= x_0_1 <= 1
 0 <= x_0_2 <= 1
 0 <= x_0_3 <= 1
 0 <= x_0_4 <= 1
 0 <= x_1_0 <= 1
 0 <= x_2_0 <= 1
 0 <= x_3_0 <= 1
 0 <= x_4_0 <= 1
 0 <= x_1_2 <= 1
 0 <= x_1_3 <= 1
 0 <= x_1_4 <= 1
 0 <= x_2_1 <= 1
 0 <= x_2_3 <= 1
 0 <= x_2_4 <= 1
 0 <= x_3_1 <= 1
 0 <= x_3_2 <= 1
 0 <= x_3_4 <= 1
 0 <= x_4_1 <= 1
 0 <= x_4_2 <= 1
 0 <= x_4_3 <= 1
 0 <= w_0 <= 10
 0 <= w_1 <= 10
 0 <= w_2 <= 10
 0 <= w_3 <= 10
 0 <= w_4 <= 10
Binaries
 x_0_1  x_0_2  x_0_3  x_0_4  x_1_0  x_2_0  x_3_0  x_4_0  x_1_2  x_1_3  x_1_4 
 x_2_1  x_2_3  x_2_4  x_3_1  x_3_2  x_3_4  x_4_1  x_4_2  x_4_3 
End
